p cnf 88 66
11 -6 10 0
-7 13 14 15 12 0
-7 13 16 17 12 0
-7 13 18 19 12 0
11 -12 10 0
23 -6 22 0
23 -12 22 0
24 -9 22 0
35 36 34 0
38 37 0
-34 -37 33 0
36 41 40 0
-33 39 -40 32 0
36 43 41 42 0
-42 39 44 45 32 0
31 -32 30 0
-30 46 47 48 29 0
27 28 -29 26 0
25 -26 22 0
25 -29 22 0
52 -6 51 0
52 -12 51 0
53 -9 51 0
54 -21 51 0
-22 56 57 58 55 0
-22 56 14 59 55 0
-22 56 16 60 55 0
-22 56 18 61 55 0
54 -55 51 0
62 -26 51 0
62 -29 51 0
-51 63 57 64 50 0
49 -50 22 0
-51 66 14 67 65 0
-51 66 16 68 65 0
-51 66 18 69 65 0
49 -65 22 0
-22 70 57 71 21 0
20 -21 10 0
20 -55 10 0
72 -26 10 0
72 -29 10 0
73 -50 10 0
73 -65 10 0
-10 74 14 75 9 0
-10 74 16 76 9 0
-10 74 18 77 9 0
8 -9 7 0
78 -21 7 0
78 -55 7 0
79 -26 7 0
79 -29 7 0
80 -50 7 0
80 -65 7 0
-7 81 57 82 6 0
5 -6 4 0
5 -12 4 0
83 -9 4 0
84 -21 4 0
84 -55 4 0
85 -26 4 0
85 -29 4 0
86 -50 4 0
86 -65 4 0
-4 87 57 88 3 0
2 -3 1 0
